7283
7350
7302
7303
7325
7193
7195
7311
7416
7334
7364
7338
7269
7324
7324
7254
7162
7310
7321
7143
7242
7311
7316
7317
7292
7384
7333
7309
7198
7344
7435
7245
7393
7337
7227
7302
7339
7267
7325
7308
7327
7222
7293
7204
7230
7316
7241
7366
7329
7257
7323
7267
7386
7314
7384
7309
7327
7333
7166
7303
7303
7340
7409
7291
7372
7279
7293
7284
7316
7213
7291
7327
7443
7303
7426
7246
7359
7318
7247
7331
7279
7376
7288
7284
7341
7335
7255
7227
7279
7258
7316
7319
7356
7271
7145
7379
7323
7263
7347
7300
